*SPEF "IEEE 1481-1999"
*DESIGN "top"
*DATE "Fri Aug  6 00:00:00 2026"
*VENDOR "vyges"
*PROGRAM "handwritten example"
*VERSION "1.0"
*DESIGN_FLOW "NAME_SCOPE LOCAL" "PIN_CAP NONE"
*DIVIDER /
*DELIMITER :
*BUS_DELIMITER [ ]
*T_UNIT 1 PS
*C_UNIT 1 FF
*R_UNIT 1 OHM
*L_UNIT 1 HENRY

*NAME_MAP
*1 n1
*2 n2
*3 g1
*4 g2
*5 g3

*D_NET *1 80.000000
*CONN
*I *3:Y O
*I *4:A I
*CAP
1 *3:Y 30.000000
2 *1:1 30.000000
3 *1:1 *2:1 20.000000
*RES
1 *1:1 *3:Y 250.000000
2 *1:1 *4:A 250.000000
*END

*D_NET *2 80.000000
*CONN
*I *4:Y O
*I *5:A I
*CAP
1 *4:Y 30.000000
2 *2:1 30.000000
3 *2:1 *1:1 20.000000
*RES
1 *2:1 *4:Y 250.000000
2 *2:1 *5:A 250.000000
*END
